p cnf 27 44
1 2 3 0
-1 -2 0
-1 -3 0
-2 -3 0
4 5 0
-4 -5 0
6 7 0
-6 -7 0
8 9 0
-8 -9 0
10 11 0
-10 -11 0
12 13 0
-12 -13 0
14 15 0
-14 -15 0
16 17 0
-16 -17 0
18 19 0
-18 -19 0
20 21 0
-20 -21 0
22 23 24 0
-22 -23 0
-22 -24 0
-23 -24 0
25 26 27 0
-25 -26 0
-25 -27 0
-26 -27 0
-1 -12 0
-3 -13 0
-2 -23 0
-4 -26 0
-5 -27 0
-7 -13 0
-6 -16 0
-7 -17 0
-8 -19 0
-11 -13 0
-10 -20 0
-11 -21 0
-22 -26 0
-23 -27 0
